%nprocshared=16
%chk=adenine_F.chk
# opt=(tight,calcfc) b3lyp/6-311++g(2df,2p) scrf=(iefpcm,solvent=water)

adenine PCM 298 K 6-311++G(2df,2p)

0 1
N       -1.59522000   1.06960000   0.06630000
N       -1.50774000  -1.14505000  -0.07877000
N        0.89710000  -1.34588000  -0.06601000
N        2.05593000   0.77423000   0.07417000
N        0.97275000   2.85090000   0.17435000
C       -0.26700000   0.75096000   0.04426000
C       -0.23957000  -0.62922000  -0.03590000
C        0.90863000   1.47045000   0.09985000
C       -2.30168000  -0.09946000  -0.01087000
C        1.98868000  -0.57300000  -0.00245000
H       -1.98435000   1.99789000   0.14464000
H       -3.38366000  -0.12544000  -0.01174000
H        2.94131000  -1.09402000  -0.01648000
H        0.25117000   3.35319000  -0.32068000
H        1.92088000   3.16011000  -0.01982000

--Link1--
%nprocshared=16
%chk=adenine_F.chk
# freq b3lyp/6-311++g(2df,2p) scrf=(iefpcm,solvent=water) temperature=298 Geom=AllChk Guess=Read
